TCS_Benchmarks/redos_fix/snort1_output_distinct_3100_3099_1_0.txt
[^\n\r]*
([^\n\r]*)([aA][cC][tT][iI][oO][nN]=[dD][eE][lL][eE][tT][eE])([^\n\r]*)
[^\n\r]*